benchmarks_CP/INST_49x49/40/inst49x49_40_84.dzn
S=7;
start=[|
-1,	36,	22,	-1,	18,	-1,	49,	-1,	38,	-1,	-1,	-1,	-1,	-1,	-1,	4,	-1,	5,	-1,	-1,	31,	-1,	-1,	28,	-1,	43,	-1,	-1,	16,	-1,	-1,	-1,	15,	-1,	-1,	-1,	48,	-1,	6,	12,	29,	47,	-1,	3,	-1,	37,	-1,	-1,	-1|
34,	14,	40,	11,	23,	-1,	-1,	-1,	-1,	45,	3,	47,	42,	37,	-1,	41,	-1,	-1,	-1,	-1,	-1,	48,	-1,	-1,	-1,	9,	-1,	-1,	-1,	21,	44,	36,	-1,	-1,	18,	31,	-1,	-1,	5,	-1,	-1,	2,	-1,	-1,	16,	-1,	-1,	13,	-1|
-1,	1,	-1,	-1,	4,	-1,	46,	-1,	-1,	-1,	-1,	-1,	-1,	-1,	-1,	-1,	45,	-1,	3,	6,	-1,	-1,	39,	2,	25,	5,	-1,	-1,	-1,	30,	7,	-1,	37,	43,	-1,	20,	-1,	40,	-1,	41,	-1,	-1,	-1,	-1,	23,	18,	44,	9,	22|
-1,	3,	-1,	31,	26,	35,	-1,	-1,	-1,	-1,	-1,	-1,	-1,	13,	-1,	-1,	-1,	2,	-1,	48,	-1,	-1,	22,	-1,	38,	-1,	-1,	45,	-1,	-1,	39,	12,	-1,	9,	49,	-1,	33,	21,	-1,	43,	-1,	18,	4,	29,	40,	36,	-1,	-1,	-1|
-1,	-1,	-1,	12,	37,	-1,	-1,	-1,	-1,	-1,	10,	-1,	-1,	34,	-1,	47,	44,	-1,	49,	-1,	-1,	29,	-1,	24,	18,	-1,	20,	-1,	-1,	-1,	-1,	-1,	42,	-1,	-1,	-1,	28,	-1,	23,	-1,	-1,	-1,	-1,	-1,	26,	41,	21,	-1,	-1|
-1,	-1,	-1,	6,	-1,	39,	-1,	-1,	-1,	-1,	-1,	-1,	-1,	-1,	-1,	-1,	-1,	11,	18,	12,	-1,	-1,	15,	14,	-1,	-1,	-1,	-1,	-1,	-1,	-1,	34,	-1,	-1,	33,	46,	49,	4,	-1,	24,	-1,	-1,	-1,	10,	-1,	48,	-1,	-1,	-1|
-1,	16,	41,	7,	30,	45,	5,	-1,	-1,	-1,	11,	-1,	-1,	-1,	-1,	34,	-1,	-1,	20,	36,	40,	-1,	23,	31,	-1,	19,	17,	12,	48,	-1,	-1,	-1,	-1,	-1,	8,	25,	44,	39,	-1,	-1,	-1,	13,	6,	-1,	35,	24,	-1,	-1,	-1|
10,	-1,	-1,	5,	-1,	36,	-1,	46,	9,	-1,	4,	-1,	43,	28,	-1,	-1,	-1,	30,	-1,	-1,	-1,	-1,	-1,	-1,	41,	33,	-1,	-1,	-1,	24,	-1,	-1,	29,	17,	-1,	-1,	32,	-1,	-1,	39,	-1,	-1,	-1,	-1,	-1,	1,	26,	-1,	11|
3,	-1,	31,	13,	-1,	16,	30,	48,	47,	-1,	-1,	-1,	-1,	42,	40,	-1,	14,	-1,	17,	-1,	-1,	10,	6,	35,	-1,	-1,	-1,	24,	41,	-1,	-1,	-1,	4,	22,	2,	-1,	45,	11,	-1,	-1,	-1,	-1,	49,	36,	-1,	7,	-1,	-1,	-1|
-1,	-1,	18,	44,	-1,	-1,	22,	-1,	-1,	11,	-1,	-1,	45,	33,	6,	43,	4,	26,	-1,	29,	32,	42,	25,	-1,	17,	-1,	13,	-1,	8,	-1,	37,	-1,	38,	20,	-1,	-1,	-1,	-1,	14,	36,	-1,	24,	-1,	-1,	-1,	15,	-1,	35,	-1|
-1,	42,	-1,	-1,	40,	28,	23,	41,	32,	-1,	16,	-1,	14,	5,	-1,	-1,	3,	1,	7,	-1,	34,	-1,	21,	30,	-1,	-1,	-1,	-1,	46,	9,	11,	26,	27,	49,	10,	-1,	-1,	13,	-1,	-1,	-1,	-1,	-1,	-1,	-1,	-1,	-1,	12,	-1|
-1,	19,	-1,	34,	39,	17,	37,	-1,	-1,	-1,	38,	-1,	-1,	-1,	-1,	45,	49,	-1,	23,	24,	47,	-1,	-1,	26,	-1,	-1,	-1,	16,	33,	12,	-1,	21,	-1,	5,	-1,	-1,	-1,	8,	27,	1,	-1,	9,	32,	-1,	-1,	31,	-1,	-1,	48|
-1,	-1,	-1,	-1,	-1,	32,	-1,	29,	-1,	27,	-1,	-1,	-1,	3,	11,	21,	-1,	-1,	-1,	42,	36,	4,	-1,	5,	-1,	-1,	49,	-1,	-1,	-1,	-1,	-1,	-1,	-1,	-1,	-1,	-1,	-1,	-1,	-1,	44,	-1,	-1,	-1,	-1,	28,	-1,	6,	8|
-1,	-1,	-1,	-1,	-1,	-1,	-1,	18,	-1,	-1,	6,	-1,	34,	-1,	-1,	-1,	41,	37,	-1,	-1,	-1,	-1,	47,	-1,	22,	-1,	-1,	-1,	-1,	-1,	23,	-1,	32,	-1,	-1,	-1,	-1,	17,	33,	-1,	-1,	-1,	20,	-1,	-1,	16,	-1,	5,	-1|
-1,	31,	48,	-1,	-1,	-1,	10,	-1,	8,	-1,	-1,	-1,	-1,	-1,	41,	-1,	46,	-1,	-1,	14,	-1,	-1,	-1,	-1,	-1,	47,	19,	-1,	15,	-1,	-1,	-1,	36,	-1,	3,	-1,	27,	5,	-1,	-1,	-1,	42,	-1,	-1,	49,	-1,	-1,	-1,	-1|
-1,	44,	-1,	-1,	13,	42,	-1,	40,	33,	-1,	15,	-1,	-1,	14,	-1,	49,	-1,	-1,	-1,	-1,	-1,	2,	28,	-1,	35,	-1,	-1,	-1,	-1,	19,	-1,	-1,	24,	-1,	39,	29,	-1,	-1,	31,	30,	-1,	6,	-1,	-1,	-1,	-1,	-1,	-1,	-1|
45,	-1,	-1,	40,	-1,	-1,	-1,	13,	37,	-1,	-1,	-1,	20,	-1,	-1,	-1,	-1,	8,	-1,	21,	-1,	-1,	-1,	-1,	-1,	-1,	-1,	-1,	-1,	-1,	17,	-1,	-1,	-1,	27,	43,	-1,	18,	-1,	26,	11,	-1,	-1,	-1,	-1,	-1,	36,	-1,	35|
-1,	-1,	-1,	-1,	41,	-1,	-1,	-1,	19,	-1,	-1,	-1,	-1,	-1,	20,	-1,	11,	7,	-1,	35,	-1,	-1,	42,	-1,	13,	-1,	33,	-1,	1,	-1,	-1,	-1,	-1,	-1,	-1,	-1,	-1,	-1,	21,	-1,	-1,	-1,	38,	-1,	-1,	9,	-1,	-1,	27|
6,	-1,	-1,	-1,	38,	20,	-1,	3,	25,	46,	-1,	2,	41,	1,	37,	-1,	-1,	17,	45,	-1,	-1,	-1,	-1,	22,	8,	-1,	-1,	-1,	35,	-1,	26,	23,	30,	-1,	-1,	-1,	-1,	-1,	-1,	-1,	-1,	-1,	-1,	13,	-1,	-1,	-1,	24,	-1|
-1,	15,	-1,	-1,	-1,	-1,	-1,	-1,	16,	-1,	-1,	-1,	27,	30,	1,	-1,	22,	28,	-1,	44,	-1,	-1,	5,	-1,	-1,	11,	21,	32,	-1,	-1,	-1,	33,	9,	18,	-1,	-1,	-1,	-1,	-1,	-1,	12,	-1,	-1,	-1,	-1,	42,	-1,	40,	-1|
-1,	5,	27,	-1,	-1,	-1,	-1,	36,	-1,	-1,	31,	-1,	-1,	-1,	-1,	-1,	16,	-1,	19,	-1,	-1,	-1,	24,	-1,	37,	-1,	-1,	-1,	49,	34,	-1,	13,	14,	-1,	-1,	-1,	-1,	-1,	-1,	3,	-1,	-1,	8,	-1,	-1,	-1,	-1,	18,	-1|
-1,	10,	-1,	-1,	-1,	-1,	-1,	-1,	-1,	-1,	-1,	-1,	13,	-1,	38,	-1,	18,	-1,	25,	34,	37,	-1,	-1,	-1,	-1,	-1,	-1,	-1,	-1,	-1,	12,	43,	-1,	-1,	-1,	-1,	-1,	-1,	3,	-1,	-1,	35,	-1,	39,	-1,	-1,	40,	-1,	5|
35,	-1,	-1,	-1,	-1,	9,	-1,	21,	-1,	23,	-1,	38,	22,	-1,	-1,	-1,	1,	16,	36,	-1,	-1,	17,	-1,	3,	-1,	26,	48,	31,	-1,	-1,	-1,	-1,	-1,	41,	-1,	45,	-1,	-1,	-1,	44,	-1,	-1,	7,	-1,	10,	43,	-1,	19,	-1|
11,	22,	-1,	47,	49,	30,	45,	-1,	7,	-1,	-1,	-1,	-1,	-1,	-1,	33,	-1,	-1,	-1,	39,	-1,	-1,	-1,	8,	-1,	-1,	41,	-1,	34,	-1,	-1,	4,	-1,	46,	-1,	-1,	-1,	12,	-1,	9,	17,	-1,	-1,	-1,	-1,	-1,	-1,	-1,	-1|
40,	-1,	20,	-1,	-1,	26,	43,	-1,	44,	37,	19,	-1,	-1,	41,	-1,	-1,	29,	-1,	-1,	8,	17,	-1,	-1,	39,	30,	10,	-1,	28,	-1,	18,	9,	-1,	-1,	-1,	15,	-1,	-1,	38,	-1,	-1,	-1,	-1,	13,	34,	-1,	-1,	-1,	31,	-1|
12,	24,	-1,	-1,	-1,	48,	-1,	43,	-1,	17,	-1,	-1,	-1,	10,	-1,	-1,	47,	41,	-1,	-1,	20,	-1,	-1,	-1,	-1,	42,	-1,	5,	21,	-1,	-1,	-1,	-1,	-1,	-1,	39,	-1,	-1,	-1,	-1,	-1,	-1,	25,	-1,	45,	6,	-1,	-1,	-1|
1,	37,	-1,	-1,	-1,	-1,	-1,	-1,	-1,	-1,	24,	-1,	47,	-1,	4,	-1,	-1,	-1,	21,	-1,	-1,	-1,	-1,	-1,	-1,	18,	22,	-1,	-1,	-1,	-1,	25,	48,	39,	-1,	-1,	31,	7,	-1,	13,	19,	41,	-1,	-1,	32,	30,	3,	-1,	-1|
13,	8,	5,	-1,	-1,	-1,	-1,	49,	-1,	-1,	42,	18,	-1,	-1,	-1,	-1,	-1,	44,	-1,	-1,	48,	47,	43,	-1,	-1,	25,	-1,	4,	-1,	-1,	-1,	40,	-1,	27,	-1,	-1,	-1,	-1,	-1,	-1,	22,	28,	17,	-1,	-1,	-1,	-1,	-1,	-1|
37,	34,	-1,	23,	-1,	3,	-1,	24,	-1,	42,	-1,	-1,	-1,	-1,	-1,	-1,	30,	-1,	-1,	-1,	-1,	-1,	4,	-1,	-1,	-1,	-1,	47,	-1,	-1,	-1,	46,	-1,	-1,	44,	-1,	-1,	-1,	38,	48,	-1,	12,	35,	-1,	18,	-1,	-1,	-1,	-1|
-1,	-1,	-1,	-1,	31,	-1,	-1,	19,	-1,	12,	49,	-1,	-1,	40,	13,	-1,	-1,	-1,	41,	-1,	-1,	35,	-1,	-1,	11,	-1,	-1,	-1,	-1,	-1,	-1,	22,	-1,	-1,	-1,	26,	-1,	-1,	39,	-1,	-1,	-1,	-1,	-1,	-1,	14,	34,	-1,	-1|
20,	39,	-1,	45,	-1,	-1,	18,	-1,	-1,	-1,	-1,	-1,	-1,	35,	-1,	-1,	-1,	-1,	-1,	-1,	2,	1,	-1,	15,	48,	13,	36,	-1,	-1,	-1,	-1,	-1,	-1,	29,	21,	-1,	-1,	19,	30,	27,	9,	-1,	-1,	-1,	-1,	-1,	-1,	-1,	-1|
30,	25,	-1,	1,	9,	-1,	-1,	17,	-1,	-1,	-1,	11,	-1,	-1,	-1,	-1,	32,	36,	-1,	31,	18,	19,	-1,	-1,	28,	37,	-1,	-1,	40,	39,	13,	-1,	-1,	-1,	-1,	-1,	-1,	-1,	46,	4,	-1,	-1,	-1,	-1,	48,	8,	-1,	-1,	45|
-1,	-1,	10,	49,	42,	43,	-1,	37,	28,	2,	34,	16,	33,	-1,	-1,	-1,	38,	-1,	-1,	-1,	46,	-1,	12,	-1,	-1,	-1,	-1,	-1,	-1,	48,	-1,	30,	-1,	15,	-1,	-1,	47,	31,	1,	-1,	-1,	-1,	-1,	22,	21,	17,	39,	-1,	44|
-1,	-1,	-1,	-1,	-1,	-1,	40,	-1,	6,	15,	-1,	-1,	-1,	39,	10,	25,	-1,	-1,	-1,	-1,	45,	30,	-1,	34,	-1,	16,	-1,	21,	-1,	-1,	-1,	-1,	49,	-1,	43,	-1,	7,	28,	22,	33,	-1,	-1,	42,	37,	-1,	-1,	-1,	-1,	9|
-1,	-1,	12,	-1,	35,	47,	-1,	32,	-1,	-1,	-1,	30,	38,	8,	-1,	-1,	-1,	-1,	-1,	-1,	-1,	-1,	-1,	10,	-1,	-1,	25,	-1,	-1,	-1,	-1,	-1,	-1,	2,	-1,	-1,	-1,	34,	44,	45,	24,	-1,	-1,	-1,	-1,	49,	43,	20,	40|
-1,	20,	-1,	32,	-1,	-1,	39,	-1,	30,	-1,	-1,	13,	9,	-1,	23,	35,	28,	-1,	46,	-1,	-1,	-1,	27,	25,	-1,	-1,	-1,	44,	-1,	10,	-1,	24,	41,	33,	-1,	-1,	-1,	-1,	-1,	-1,	37,	-1,	-1,	-1,	-1,	26,	-1,	-1,	-1|
-1,	-1,	29,	27,	-1,	18,	-1,	10,	-1,	49,	36,	-1,	-1,	-1,	-1,	16,	-1,	45,	37,	-1,	-1,	-1,	-1,	-1,	-1,	-1,	-1,	-1,	-1,	-1,	8,	-1,	21,	-1,	19,	48,	-1,	-1,	25,	-1,	6,	26,	-1,	-1,	-1,	35,	-1,	-1,	-1|
44,	-1,	9,	42,	-1,	-1,	1,	-1,	20,	28,	8,	-1,	-1,	-1,	18,	-1,	17,	49,	22,	41,	4,	32,	-1,	37,	-1,	-1,	46,	-1,	-1,	-1,	-1,	-1,	12,	-1,	-1,	24,	13,	-1,	-1,	16,	23,	30,	-1,	-1,	-1,	-1,	-1,	36,	-1|
-1,	46,	-1,	38,	-1,	40,	15,	35,	-1,	-1,	-1,	-1,	12,	-1,	32,	10,	-1,	27,	-1,	-1,	-1,	28,	-1,	-1,	5,	-1,	-1,	30,	22,	-1,	-1,	18,	-1,	-1,	26,	41,	-1,	-1,	45,	42,	-1,	-1,	37,	-1,	33,	3,	9,	39,	-1|
26,	45,	37,	-1,	33,	-1,	8,	1,	2,	-1,	41,	-1,	-1,	-1,	-1,	-1,	6,	20,	30,	47,	21,	-1,	-1,	42,	14,	36,	-1,	35,	-1,	-1,	49,	-1,	-1,	-1,	4,	-1,	-1,	-1,	19,	-1,	-1,	-1,	-1,	5,	25,	40,	-1,	-1,	-1|
25,	7,	34,	-1,	-1,	-1,	-1,	-1,	-1,	-1,	37,	-1,	40,	-1,	31,	24,	-1,	-1,	-1,	2,	12,	-1,	17,	13,	-1,	4,	16,	-1,	28,	38,	-1,	27,	-1,	42,	32,	3,	-1,	-1,	-1,	35,	-1,	14,	29,	-1,	-1,	-1,	49,	-1,	-1|
-1,	-1,	-1,	35,	6,	4,	24,	-1,	-1,	-1,	-1,	-1,	-1,	-1,	-1,	11,	36,	-1,	-1,	-1,	-1,	26,	-1,	-1,	-1,	22,	23,	-1,	-1,	-1,	-1,	39,	20,	30,	-1,	-1,	21,	32,	40,	8,	-1,	44,	18,	-1,	-1,	-1,	-1,	34,	-1|
42,	49,	47,	17,	-1,	-1,	-1,	-1,	24,	-1,	-1,	-1,	-1,	-1,	48,	-1,	2,	-1,	6,	22,	-1,	12,	8,	1,	19,	-1,	28,	-1,	-1,	15,	-1,	-1,	45,	-1,	-1,	11,	29,	-1,	4,	34,	-1,	23,	21,	-1,	31,	39,	-1,	-1,	36|
16,	-1,	26,	-1,	45,	1,	-1,	23,	-1,	29,	-1,	-1,	-1,	7,	24,	-1,	-1,	31,	-1,	-1,	-1,	22,	14,	4,	-1,	-1,	-1,	-1,	-1,	33,	20,	-1,	-1,	-1,	-1,	-1,	-1,	6,	41,	-1,	-1,	39,	2,	-1,	42,	12,	-1,	43,	-1|
41,	48,	-1,	2,	-1,	-1,	28,	39,	26,	-1,	-1,	-1,	-1,	-1,	-1,	-1,	-1,	13,	42,	23,	-1,	45,	-1,	38,	3,	-1,	-1,	40,	-1,	-1,	22,	-1,	-1,	4,	-1,	-1,	30,	-1,	-1,	18,	27,	37,	-1,	-1,	-1,	-1,	-1,	15,	-1|
15,	40,	-1,	-1,	11,	-1,	-1,	-1,	-1,	-1,	-1,	-1,	-1,	-1,	-1,	37,	43,	-1,	-1,	-1,	-1,	13,	-1,	32,	16,	-1,	31,	17,	-1,	41,	-1,	-1,	39,	-1,	-1,	-1,	-1,	-1,	-1,	-1,	25,	-1,	-1,	45,	8,	-1,	35,	-1,	-1|
31,	43,	19,	10,	-1,	-1,	7,	2,	-1,	36,	-1,	-1,	-1,	4,	9,	17,	33,	47,	-1,	45,	11,	-1,	-1,	48,	-1,	-1,	26,	29,	-1,	-1,	-1,	37,	44,	34,	1,	16,	-1,	42,	49,	21,	-1,	22,	3,	-1,	-1,	-1,	13,	-1,	41|
-1,	-1,	30,	-1,	-1,	-1,	-1,	11,	43,	16,	-1,	14,	19,	-1,	-1,	44,	20,	3,	-1,	10,	-1,	-1,	41,	-1,	46,	2,	-1,	-1,	-1,	26,	25,	29,	28,	-1,	-1,	-1,	38,	24,	17,	-1,	32,	-1,	-1,	-1,	-1,	-1,	-1,	1,	-1|
5,	23,	-1,	39,	32,	37,	-1,	44,	-1,	-1,	-1,	-1,	-1,	-1,	28,	-1,	-1,	-1,	-1,	-1,	-1,	24,	36,	11,	-1,	-1,	-1,	-1,	12,	6,	-1,	49,	-1,	21,	-1,	8,	40,	-1,	-1,	14,	43,	-1,	9,	18,	-1,	-1,	-1,	29,	-1|];
