sudoku-ls/benchmarks_LEQ/INST_49x49/40/inst49x49_40_84.txt
7
1
19	-1	22	9	-1	-1	-1	-1	-1	-1	1	23	-1	44	35	-1	39	5	32	26	-1	40	-1	-1	-1	-1	42	8	16	-1	45	-1	-1	-1	20	17	-1	14	6	12	-1	-1	-1	-1	-1	37	-1	33	-1
34	-1	-1	-1	23	38	-1	-1	35	-1	-1	-1	42	37	29	-1	-1	22	-1	-1	43	48	-1	27	4	-1	-1	-1	-1	21	44	-1	-1	-1	-1	31	-1	-1	-1	19	-1	2	39	-1	-1	-1	7	13	-1
-1	-1	-1	24	-1	10	-1	-1	31	-1	-1	48	-1	-1	17	-1	45	-1	-1	-1	38	16	39	-1	-1	-1	-1	33	-1	-1	7	35	-1	-1	-1	-1	36	40	-1	41	42	27	-1	-1	-1	-1	44	-1	22
-1	3	-1	-1	-1	35	25	30	-1	5	-1	-1	-1	-1	42	-1	-1	-1	-1	-1	-1	-1	22	-1	38	46	47	-1	-1	32	-1	12	-1	-1	49	-1	-1	21	-1	-1	15	18	4	-1	-1	-1	14	-1	19
43	-1	2	12	-1	-1	48	8	39	-1	-1	-1	25	-1	30	-1	-1	-1	-1	-1	-1	-1	-1	-1	-1	3	-1	-1	-1	-1	-1	-1	42	19	13	-1	-1	35	-1	7	45	16	5	-1	-1	-1	-1	-1	32
-1	29	-1	-1	-1	39	-1	-1	-1	32	2	-1	-1	-1	8	27	13	-1	18	12	16	7	15	14	-1	35	1	-1	23	-1	5	34	40	-1	-1	-1	49	4	37	-1	30	-1	-1	10	-1	-1	-1	-1	-1
47	-1	-1	-1	-1	-1	-1	-1	-1	-1	11	-1	29	-1	-1	-1	-1	14	20	36	-1	-1	-1	31	-1	-1	-1	12	-1	-1	28	-1	22	-1	-1	-1	-1	-1	-1	-1	-1	13	6	-1	-1	-1	15	38	-1
-1	-1	-1	-1	21	-1	14	46	-1	-1	4	19	-1	-1	-1	-1	-1	30	-1	16	15	-1	-1	-1	41	-1	37	18	44	-1	-1	-1	-1	-1	-1	42	-1	2	-1	-1	-1	31	45	25	-1	-1	26	-1	-1
3	9	-1	-1	27	-1	-1	-1	47	-1	-1	-1	23	-1	40	8	-1	-1	17	-1	-1	10	6	-1	1	-1	29	24	-1	-1	19	15	-1	-1	2	-1	45	11	-1	-1	-1	20	-1	36	-1	-1	-1	-1	39
49	-1	18	44	-1	-1	22	-1	21	-1	7	12	-1	33	-1	-1	4	-1	39	-1	-1	42	-1	9	17	28	-1	-1	8	1	-1	-1	38	-1	34	30	-1	-1	14	-1	-1	24	-1	-1	-1	15	19	35	3
-1	42	-1	-1	40	-1	23	41	-1	-1	-1	36	-1	-1	-1	-1	3	-1	-1	20	-1	-1	-1	-1	-1	45	44	2	-1	-1	-1	26	-1	49	-1	4	6	13	15	-1	-1	48	47	33	37	-1	38	-1	-1
29	-1	4	-1	39	-1	-1	-1	-1	13	-1	15	-1	2	25	-1	49	-1	-1	-1	-1	-1	-1	-1	36	-1	-1	-1	-1	-1	-1	21	-1	-1	-1	-1	22	-1	-1	1	41	9	-1	-1	-1	-1	-1	-1	-1
33	47	-1	-1	48	32	12	-1	-1	-1	39	26	-1	-1	11	-1	-1	-1	-1	-1	-1	4	38	-1	40	-1	-1	-1	-1	-1	18	-1	-1	-1	-1	19	10	37	-1	46	44	43	22	30	-1	-1	24	6	-1
7	-1	1	15	25	-1	-1	18	-1	30	-1	-1	-1	49	46	31	-1	-1	-1	28	-1	-1	-1	-1	-1	27	-1	19	39	-1	-1	-1	32	-1	-1	-1	3	-1	-1	40	-1	-1	-1	-1	-1	-1	4	-1	14
18	-1	48	-1	34	29	-1	7	-1	35	-1	39	21	-1	41	-1	-1	-1	4	-1	33	-1	-1	23	-1	-1	19	-1	-1	-1	43	-1	-1	45	-1	-1	-1	5	-1	-1	13	-1	-1	17	49	-1	37	-1	6
-1	44	11	-1	-1	-1	-1	-1	-1	-1	15	17	32	-1	-1	49	-1	23	-1	18	26	-1	28	12	-1	-1	45	3	47	19	-1	20	-1	8	-1	29	-1	48	31	30	-1	-1	46	-1	-1	-1	-1	-1	-1
-1	-1	-1	40	-1	-1	-1	-1	37	-1	44	49	20	-1	47	38	-1	-1	9	21	-1	-1	-1	-1	-1	-1	-1	7	-1	-1	-1	-1	5	-1	-1	43	-1	-1	28	-1	-1	-1	-1	4	-1	-1	-1	-1	35
-1	-1	-1	26	-1	-1	16	-1	-1	18	-1	-1	-1	-1	-1	3	-1	7	-1	-1	-1	25	-1	-1	-1	-1	33	49	-1	-1	40	48	-1	10	-1	-1	-1	-1	21	-1	-1	4	-1	2	-1	-1	-1	30	-1
6	28	-1	43	-1	-1	-1	3	25	46	-1	-1	41	-1	37	-1	31	-1	45	-1	-1	18	34	22	-1	-1	-1	-1	35	-1	-1	-1	30	44	12	49	19	-1	-1	-1	-1	32	48	-1	-1	-1	-1	-1	-1
-1	15	-1	-1	-1	49	17	-1	-1	43	-1	45	27	30	1	-1	-1	-1	48	44	29	14	-1	36	-1	-1	-1	-1	-1	-1	-1	33	9	-1	-1	-1	2	-1	-1	47	-1	8	-1	41	-1	-1	10	-1	-1
-1	-1	27	-1	1	-1	-1	-1	-1	-1	-1	-1	-1	-1	-1	-1	-1	-1	19	-1	-1	-1	24	-1	37	48	15	-1	-1	-1	-1	-1	14	-1	-1	9	-1	-1	35	3	-1	17	-1	-1	-1	-1	47	-1	-1
-1	-1	-1	-1	17	-1	-1	15	48	-1	-1	-1	13	-1	-1	-1	-1	6	-1	-1	-1	-1	-1	-1	-1	24	-1	-1	-1	22	-1	-1	-1	-1	36	33	11	-1	-1	20	-1	-1	-1	39	9	47	40	2	5
35	-1	-1	-1	28	-1	-1	21	46	-1	-1	38	22	25	-1	12	1	-1	-1	-1	24	17	37	3	15	-1	-1	-1	-1	47	-1	-1	13	-1	-1	45	5	-1	42	44	40	34	-1	-1	10	43	-1	-1	-1
11	22	6	47	-1	-1	-1	16	7	-1	-1	-1	-1	36	3	-1	40	-1	31	39	-1	-1	-1	8	20	1	41	13	-1	5	10	4	-1	46	37	18	15	12	43	9	-1	-1	-1	21	38	-1	-1	-1	-1
-1	-1	20	25	-1	-1	-1	-1	-1	-1	-1	-1	-1	-1	-1	22	-1	-1	-1	-1	17	-1	33	-1	30	10	14	28	-1	18	-1	11	-1	-1	-1	-1	-1	-1	-1	-1	-1	-1	13	-1	-1	-1	-1	-1	46
12	24	3	-1	15	-1	-1	43	27	17	33	-1	-1	10	-1	7	47	-1	35	-1	-1	9	32	-1	-1	-1	-1	-1	-1	-1	31	-1	-1	28	-1	39	-1	-1	-1	49	2	46	-1	-1	45	6	-1	22	-1
-1	37	-1	-1	16	-1	-1	-1	-1	20	-1	-1	-1	12	4	-1	26	-1	-1	27	23	-1	2	-1	-1	-1	-1	-1	-1	-1	42	-1	48	-1	-1	-1	-1	7	-1	-1	19	41	-1	-1	-1	-1	-1	-1	28
-1	-1	-1	33	-1	2	31	-1	-1	34	-1	-1	-1	11	45	46	9	-1	-1	-1	-1	-1	43	-1	12	25	35	-1	19	7	38	-1	-1	27	-1	-1	37	16	32	-1	22	28	17	15	-1	-1	-1	41	-1
-1	-1	-1	23	8	-1	6	-1	-1	-1	-1	25	26	45	-1	-1	30	39	-1	49	-1	-1	-1	33	-1	17	40	47	-1	-1	-1	46	-1	11	-1	2	14	41	-1	-1	-1	-1	35	7	-1	13	-1	-1	-1
-1	-1	-1	-1	-1	-1	-1	-1	36	-1	-1	-1	44	40	13	6	-1	24	41	-1	3	-1	-1	18	11	8	-1	-1	-1	-1	47	-1	33	-1	-1	26	-1	-1	39	17	-1	-1	30	-1	46	-1	34	10	15
-1	39	17	-1	22	7	-1	-1	14	-1	46	-1	-1	-1	-1	-1	-1	-1	-1	5	-1	-1	-1	-1	-1	-1	-1	38	42	-1	32	-1	34	-1	21	37	43	19	-1	27	9	-1	-1	24	6	25	-1	3	12
-1	-1	24	-1	-1	44	-1	-1	-1	-1	-1	11	-1	21	-1	-1	-1	-1	-1	31	-1	-1	-1	29	-1	-1	-1	22	40	39	13	5	10	-1	-1	-1	35	-1	-1	4	-1	15	41	-1	-1	-1	-1	-1	-1
4	-1	-1	49	-1	-1	32	-1	-1	-1	34	16	33	-1	27	20	38	35	-1	19	-1	6	-1	-1	-1	-1	5	14	-1	-1	41	-1	7	15	-1	-1	47	-1	1	-1	-1	-1	36	-1	21	-1	39	26	-1
46	-1	14	41	19	13	-1	5	6	-1	48	-1	-1	-1	-1	-1	-1	29	47	17	-1	30	-1	34	-1	16	-1	-1	38	23	-1	-1	-1	-1	-1	-1	-1	28	22	-1	-1	11	-1	37	-1	-1	-1	-1	-1
21	-1	12	-1	35	-1	36	-1	-1	-1	29	-1	38	-1	-1	14	48	-1	-1	37	22	46	-1	-1	-1	41	25	-1	-1	-1	1	-1	-1	-1	6	23	-1	34	44	-1	-1	-1	27	-1	-1	-1	-1	20	-1
14	20	16	-1	3	-1	39	6	-1	47	-1	-1	-1	43	-1	35	-1	40	-1	-1	-1	15	-1	25	2	-1	18	44	7	-1	-1	24	-1	-1	-1	-1	-1	-1	-1	-1	-1	-1	-1	-1	4	-1	42	17	-1
-1	30	-1	-1	-1	-1	-1	-1	34	49	-1	-1	-1	17	-1	16	-1	-1	37	-1	-1	38	-1	-1	-1	12	-1	-1	3	31	-1	-1	21	1	19	-1	-1	33	-1	-1	6	-1	28	14	-1	35	-1	11	-1
44	-1	-1	-1	-1	-1	1	-1	20	-1	8	7	-1	-1	18	-1	-1	-1	22	41	-1	32	-1	-1	33	29	46	-1	14	-1	-1	-1	12	40	48	-1	-1	-1	2	16	23	-1	19	27	43	38	6	-1	47
48	-1	-1	38	43	-1	-1	35	-1	24	-1	-1	-1	-1	32	-1	19	-1	13	-1	25	28	-1	-1	-1	6	-1	-1	-1	2	-1	-1	11	-1	26	-1	17	-1	-1	42	34	-1	-1	-1	-1	-1	-1	39	-1
26	45	-1	28	-1	-1	-1	-1	-1	39	41	22	-1	-1	-1	29	6	-1	-1	-1	-1	-1	-1	-1	-1	-1	-1	35	-1	13	-1	-1	-1	-1	-1	-1	-1	15	19	-1	-1	-1	16	5	25	-1	-1	-1	-1
-1	7	34	-1	10	22	11	-1	15	-1	37	-1	40	23	31	24	-1	-1	-1	-1	12	-1	17	-1	-1	-1	-1	41	28	38	-1	-1	-1	42	-1	-1	39	43	18	-1	-1	-1	29	-1	20	-1	-1	-1	-1
17	-1	49	-1	6	-1	24	42	-1	38	5	-1	-1	27	-1	-1	36	-1	-1	-1	-1	26	45	-1	7	-1	-1	-1	-1	-1	-1	39	20	-1	-1	-1	21	-1	40	8	47	-1	18	12	-1	-1	-1	34	-1
42	-1	47	-1	-1	-1	-1	-1	-1	41	-1	-1	5	20	48	-1	-1	-1	-1	-1	-1	-1	-1	-1	19	7	-1	43	-1	-1	3	10	-1	32	16	-1	29	-1	4	-1	-1	-1	21	46	-1	-1	-1	37	-1
-1	-1	26	-1	-1	-1	-1	-1	-1	29	40	-1	37	-1	24	-1	21	-1	8	-1	-1	-1	-1	-1	47	44	27	-1	-1	-1	-1	-1	-1	-1	-1	-1	-1	-1	-1	15	-1	-1	-1	-1	-1	-1	28	43	10
-1	-1	-1	2	29	-1	28	-1	26	-1	-1	46	-1	32	-1	-1	-1	13	-1	-1	-1	-1	-1	-1	3	34	-1	-1	-1	-1	22	-1	-1	-1	35	-1	30	-1	7	18	27	37	-1	-1	11	-1	20	-1	-1
-1	-1	36	4	-1	-1	20	-1	42	9	22	10	-1	-1	26	-1	-1	34	29	-1	-1	-1	18	32	16	-1	-1	-1	-1	-1	48	14	39	-1	-1	5	1	-1	-1	-1	-1	19	-1	-1	-1	33	35	-1	-1
-1	-1	19	-1	46	-1	-1	-1	-1	36	-1	-1	15	4	-1	-1	-1	-1	38	45	-1	5	35	48	-1	39	-1	-1	30	-1	-1	37	-1	-1	-1	-1	20	42	-1	21	28	22	3	-1	-1	32	-1	-1	-1
-1	18	-1	-1	-1	27	-1	-1	43	16	21	-1	19	6	5	-1	20	-1	-1	-1	39	33	41	-1	-1	-1	9	-1	-1	-1	25	-1	28	-1	42	-1	-1	24	-1	-1	32	-1	40	23	7	-1	-1	-1	-1
5	-1	-1	-1	32	-1	34	44	-1	-1	-1	-1	-1	48	-1	1	-1	19	-1	-1	41	-1	-1	-1	-1	-1	-1	15	-1	6	46	-1	2	-1	38	-1	-1	-1	13	-1	43	-1	9	-1	-1	27	-1	-1	26
49 
44 6 31 22
21 31 34 46
20 45 28 9
34 48 1 16
3 26 8 4
3 20 32 36
20 35 46 34
26 13 4 3
6 12 36 13
40 27 47 4
17 41 3 39
48 5 3 43
4 14 46 22
3 8 28 36
1 33 17 43
16 44 13 34
4 9 7 27
43 18 34 13
35 45 22 23
40 18 21 49
3 18 34 28
33 44 36 38
26 33 40 34
12 20 25 37
24 42 16 47
43 38 19 31
32 11 47 31
3 11 21 45
36 39 17 25
21 21 42 34
34 47 11 25
22 29 18 3
32 47 45 10
7 16 32 19
34 34 20 3
28 5 27 22
4 17 38 24
29 39 25 38
35 25 11 22
21 20 7 21
25 14 45 1
49 25 12 48
27 18 47 2
26 30 48 16
48 42 37 18
9 47 39 2
31 8 6 45
31 25 42 13
34 33 40 31
